NAME: pr107
DIMENSION: 17
EDGE_WEIGHT_TYPE: EUC_2D
NODE_COORD_SECTION
1 8375 4700
2 8775 4700
3 8375 4900
4 8175 4900
5 8775 4900
6 8575 4900
7 8775 5400
8 8375 5450
9 8775 5600
10 8575 5600
11 8375 5650
12 8175 5650
13 8375 6200
14 8775 6200
15 8375 6400
16 8175 6400
17 8775 6400
ACCEPTED_PROBABILITIES
0.0
0.91
0.6
0.93
0.21
0.17
0.82
0.19
0.59
0.6
0.23
0.77
0.33
0.28
0.74
0.3
0.64
OUTSOURCING_COSTS
0.0
26.04
97.85
95.42
96.19
62.61
39.13
108.96
14.85
32.29
44.22
75.88
21.99
50.47
99.39
83.57
21.54
